 Code  1031
 Dimension, Fixed Cost
   100        3000
 Facility, Client, Transportation Cost
     1        2           1
     1        5           4
     1       19           0
     1       24           3
     1       37           4
     1       45           2
     1       74           4
     1       83           0
     1       96           4
     1       99           4
     2       17           0
     2       39           3
     2       44           1
     2       50           0
     2       61           4
     2       63           0
     2       64           2
     2       74           1
     2       86           4
     2       91           0
     3        5           0
     3       13           3
     3       17           1
     3       23           3
     3       29           2
     3       35           0
     3       36           4
     3       44           0
     3       68           4
     3       88           2
     4       14           2
     4       19           1
     4       24           3
     4       74           4
     4       77           4
     4       86           1
     4       91           1
     4       94           3
     4       96           1
     4       99           2
     5       15           2
     5       16           3
     5       20           2
     5       35           2
     5       38           1
     5       46           1
     5       52           4
     5       56           4
     5       60           3
     5       67           1
     6        6           4
     6        8           2
     6       12           1
     6       18           1
     6       23           3
     6       34           2
     6       52           2
     6       67           3
     6       69           2
     6       99           3
     7        1           2
     7       11           0
     7       15           2
     7       36           1
     7       41           1
     7       89           3
     7       90           4
     7       94           0
     7       98           1
     7       99           1
     8       11           4
     8       30           0
     8       35           0
     8       36           2
     8       51           4
     8       55           0
     8       74           3
     8       75           0
     8       77           2
     8       97           0
     9       21           4
     9       23           1
     9       43           4
     9       44           3
     9       59           3
     9       61           0
     9       76           0
     9       94           4
     9       96           2
     9      100           0
    10        1           1
    10       21           1
    10       23           1
    10       52           1
    10       53           3
    10       57           2
    10       58           4
    10       62           3
    10       70           4
    10       79           2
    11       14           3
    11       23           2
    11       24           2
    11       45           2
    11       46           3
    11       62           3
    11       65           2
    11       85           4
    11       87           2
    11       98           2
    12        7           3
    12       19           4
    12       25           0
    12       34           4
    12       46           0
    12       54           3
    12       60           2
    12       64           4
    12       74           0
    12       90           3
    13        3           4
    13        6           3
    13       24           4
    13       40           0
    13       45           0
    13       51           3
    13       62           4
    13       65           3
    13       70           3
    13       72           2
    14        7           1
    14       13           0
    14       21           2
    14       35           2
    14       52           3
    14       65           2
    14       71           4
    14       93           3
    14       94           2
    14       96           3
    15       28           3
    15       30           4
    15       40           3
    15       44           1
    15       49           0
    15       52           1
    15       54           4
    15       58           4
    15       59           0
    15       73           3
    16        3           2
    16        5           2
    16        8           0
    16       11           1
    16       32           0
    16       47           3
    16       56           2
    16       61           0
    16       69           1
    16       92           4
    17        4           0
    17        7           4
    17       12           4
    17       13           3
    17       16           0
    17       22           2
    17       27           0
    17       69           3
    17       79           3
    17      100           4
    18        4           4
    18        9           3
    18       15           3
    18       31           4
    18       32           4
    18       51           4
    18       60           2
    18       69           1
    18       72           0
    18       80           2
    19       29           0
    19       30           1
    19       50           2
    19       53           4
    19       56           1
    19       57           1
    19       58           0
    19       80           1
    19       97           1
    19       99           2
    20        4           0
    20        5           4
    20        6           3
    20        9           3
    20       10           0
    20       45           0
    20       69           3
    20       73           0
    20       75           1
    20       92           2
    21        9           1
    21       15           3
    21       27           4
    21       28           0
    21       35           0
    21       40           1
    21       48           3
    21       58           4
    21       66           1
    21       85           1
    22       12           4
    22       16           3
    22       25           3
    22       30           4
    22       43           2
    22       44           3
    22       55           4
    22       57           1
    22       78           3
    22       99           2
    23        6           4
    23       13           4
    23       14           4
    23       19           0
    23       45           1
    23       80           2
    23       82           2
    23       84           0
    23       86           3
    23       88           2
    24        2           4
    24        3           0
    24       13           0
    24       29           0
    24       58           0
    24       61           1
    24       69           0
    24       87           2
    24       89           1
    24       96           2
    25       14           2
    25       16           1
    25       20           1
    25       34           4
    25       41           2
    25       64           3
    25       69           0
    25       85           2
    25       89           3
    25       96           0
    26       20           3
    26       30           2
    26       33           4
    26       39           2
    26       50           0
    26       64           4
    26       69           2
    26       77           1
    26       82           2
    26       95           2
    27       29           1
    27       31           0
    27       37           4
    27       40           3
    27       41           0
    27       50           0
    27       77           3
    27       81           0
    27       85           0
    27       93           2
    28        2           4
    28       17           1
    28       29           1
    28       43           2
    28       45           3
    28       63           4
    28       64           2
    28       68           1
    28       77           3
    28       92           2
    29       39           4
    29       44           4
    29       50           1
    29       53           3
    29       54           2
    29       62           4
    29       72           2
    29       79           2
    29       83           1
    29       98           1
    30        2           4
    30       35           3
    30       42           3
    30       48           2
    30       51           3
    30       52           0
    30       62           3
    30       74           2
    30       88           3
    30       94           3
    31       14           3
    31       26           0
    31       29           3
    31       39           4
    31       45           3
    31       52           0
    31       56           0
    31       61           2
    31       74           0
    31      100           4
    32       37           4
    32       47           1
    32       50           4
    32       63           2
    32       70           3
    32       79           1
    32       80           0
    32       84           3
    32       90           0
    32       99           3
    33        3           4
    33       11           3
    33       22           4
    33       47           0
    33       48           4
    33       55           0
    33       58           2
    33       61           2
    33       87           3
    33      100           4
    34       15           3
    34       20           2
    34       31           4
    34       32           2
    34       50           4
    34       55           0
    34       59           2
    34       60           0
    34       65           1
    34       66           1
    35        1           1
    35       23           4
    35       29           4
    35       35           2
    35       44           4
    35       46           4
    35       48           3
    35       72           1
    35       75           0
    35       91           0
    36       23           1
    36       30           2
    36       36           2
    36       38           3
    36       40           2
    36       46           3
    36       56           1
    36       63           3
    36       75           1
    36       81           2
    37       18           4
    37       21           1
    37       24           0
    37       46           2
    37       49           3
    37       58           1
    37       63           1
    37       64           1
    37       86           0
    37       92           3
    38        5           1
    38        9           0
    38       26           1
    38       35           2
    38       42           4
    38       44           3
    38       55           1
    38       59           1
    38       86           0
    38       96           3
    39       14           4
    39       35           3
    39       39           2
    39       45           3
    39       47           2
    39       50           4
    39       81           2
    39       86           1
    39       88           2
    39       94           1
    40       14           2
    40       20           0
    40       28           0
    40       29           1
    40       30           4
    40       42           2
    40       43           3
    40       62           4
    40       63           0
    40       78           4
    41       16           3
    41       22           3
    41       31           2
    41       37           4
    41       44           4
    41       72           1
    41       80           1
    41       82           4
    41       88           3
    41       91           2
    42       11           1
    42       24           2
    42       29           4
    42       37           4
    42       38           1
    42       43           1
    42       48           2
    42       54           2
    42       56           2
    42       99           4
    43        7           0
    43       18           3
    43       31           3
    43       40           2
    43       47           1
    43       48           2
    43       51           3
    43       60           2
    43       68           2
    43       93           3
    44       18           0
    44       47           0
    44       50           0
    44       53           2
    44       57           1
    44       58           0
    44       60           2
    44       90           1
    44       94           3
    44       98           1
    45        3           4
    45        4           4
    45       16           3
    45       27           4
    45       30           0
    45       31           3
    45       39           2
    45       43           1
    45       51           0
    45       83           4
    46        4           2
    46       11           4
    46       27           4
    46       32           3
    46       34           4
    46       40           0
    46       61           4
    46       88           2
    46       92           4
    46       93           2
    47        6           2
    47       24           2
    47       32           1
    47       37           2
    47       46           1
    47       55           4
    47       73           0
    47       79           1
    47       81           4
    47       86           3
    48        8           3
    48       17           3
    48       18           3
    48       19           4
    48       28           4
    48       45           0
    48       50           2
    48       51           0
    48       77           1
    48       82           0
    49        9           3
    49       15           4
    49       40           2
    49       46           2
    49       49           0
    49       53           3
    49       56           1
    49       71           1
    49       93           0
    49      100           2
    50        8           0
    50       20           4
    50       36           3
    50       37           1
    50       58           4
    50       62           2
    50       66           0
    50       70           2
    50       72           1
    50       80           2
    51        9           3
    51       33           3
    51       34           3
    51       59           0
    51       60           4
    51       66           4
    51       79           2
    51       81           1
    51       87           3
    51       95           4
    52       22           4
    52       29           0
    52       31           3
    52       39           3
    52       62           3
    52       71           2
    52       72           4
    52       74           0
    52       85           1
    52       87           1
    53        5           2
    53       21           3
    53       32           1
    53       41           2
    53       45           4
    53       52           1
    53       60           0
    53       78           1
    53       80           2
    53       99           1
    54        8           4
    54       19           2
    54       25           1
    54       46           0
    54       47           3
    54       59           2
    54       61           1
    54       65           4
    54       73           0
    54       81           4
    55        5           0
    55       19           3
    55       40           3
    55       41           0
    55       55           1
    55       75           1
    55       94           2
    55       96           3
    55       99           4
    55      100           4
    56        2           4
    56       19           2
    56       22           4
    56       24           3
    56       42           0
    56       44           3
    56       48           2
    56       49           3
    56       87           1
    56       91           0
    57        7           0
    57       18           4
    57       28           2
    57       31           3
    57       49           0
    57       55           1
    57       81           1
    57       82           0
    57       95           2
    57       98           0
    58        4           1
    58       21           1
    58       35           1
    58       40           2
    58       41           4
    58       64           1
    58       66           3
    58       71           4
    58       87           2
    58       94           1
    59        4           1
    59        7           0
    59        8           4
    59       17           0
    59       23           0
    59       26           1
    59       62           2
    59       81           4
    59       88           0
    59       90           1
    60        1           2
    60        4           0
    60        9           3
    60       19           0
    60       33           4
    60       36           0
    60       41           3
    60       48           4
    60       62           0
    60       64           4
    61        8           2
    61       18           1
    61       32           4
    61       33           0
    61       34           1
    61       42           3
    61       56           3
    61       60           1
    61       61           0
    61       64           4
    62       22           1
    62       42           4
    62       47           1
    62       52           2
    62       64           4
    62       78           4
    62       91           4
    62       93           2
    62       95           1
    62       96           3
    63        4           3
    63       34           1
    63       48           2
    63       50           2
    63       60           2
    63       64           4
    63       74           0
    63       79           1
    63       89           0
    63       99           3
    64       18           3
    64       33           2
    64       45           2
    64       49           3
    64       55           1
    64       59           4
    64       66           4
    64       75           3
    64       80           2
    64       83           2
    65        9           1
    65       44           0
    65       47           0
    65       58           0
    65       63           0
    65       68           2
    65       69           4
    65       80           3
    65       87           4
    65       88           1
    66        5           0
    66       10           3
    66       13           1
    66       47           2
    66       59           3
    66       60           2
    66       62           4
    66       66           2
    66       71           3
    66       75           3
    67        5           2
    67        8           2
    67       25           1
    67       43           0
    67       48           0
    67       56           0
    67       57           3
    67       59           1
    67       66           2
    67       92           4
    68        2           4
    68       16           3
    68       63           4
    68       67           4
    68       70           2
    68       73           3
    68       80           0
    68       86           4
    68       87           1
    68       91           1
    69       16           1
    69       22           3
    69       48           0
    69       53           1
    69       59           4
    69       82           4
    69       92           3
    69       93           1
    69       94           0
    69      100           2
    70       10           1
    70       15           4
    70       18           3
    70       26           2
    70       49           0
    70       73           2
    70       75           2
    70       84           0
    70       90           1
    70       92           2
    71        2           2
    71       48           1
    71       55           1
    71       67           1
    71       68           0
    71       70           3
    71       76           0
    71       84           0
    71       90           1
    71      100           3
    72        7           0
    72       13           3
    72       17           1
    72       20           4
    72       23           0
    72       34           3
    72       37           3
    72       38           0
    72       39           1
    72       74           4
    73        4           3
    73       23           3
    73       32           3
    73       36           2
    73       40           4
    73       55           4
    73       58           3
    73       69           0
    73       72           1
    73       96           1
    74       11           0
    74       17           3
    74       20           2
    74       29           1
    74       30           3
    74       40           1
    74       65           3
    74       71           4
    74       83           4
    74       93           3
    75        5           2
    75        8           3
    75       11           1
    75       33           4
    75       49           4
    75       54           4
    75       55           0
    75       57           3
    75       59           3
    75       84           2
    76       10           2
    76       39           1
    76       46           4
    76       64           0
    76       70           3
    76       76           4
    76       79           3
    76       82           1
    76       86           1
    76       99           3
    77       13           4
    77       17           4
    77       23           1
    77       34           1
    77       43           3
    77       44           3
    77       76           3
    77       81           4
    77       85           2
    77       90           1
    78       13           0
    78       20           4
    78       30           3
    78       35           1
    78       50           0
    78       51           2
    78       67           4
    78       68           0
    78       71           1
    78       87           1
    79       18           3
    79       24           2
    79       37           2
    79       39           4
    79       42           1
    79       48           1
    79       52           3
    79       55           0
    79       56           0
    79       94           4
    80       31           4
    80       43           2
    80       44           4
    80       48           0
    80       52           1
    80       56           4
    80       58           3
    80       65           2
    80       87           2
    80       97           1
    81        1           2
    81       24           2
    81       28           4
    81       33           3
    81       58           2
    81       65           3
    81       70           3
    81       88           2
    81       93           3
    81       96           4
    82        7           0
    82       15           4
    82       34           2
    82       64           1
    82       67           0
    82       68           1
    82       70           2
    82       73           3
    82       90           3
    82       92           1
    83        5           1
    83        6           0
    83       17           3
    83       34           3
    83       42           0
    83       43           3
    83       49           3
    83       57           4
    83       61           0
    83       98           1
    84       25           3
    84       26           2
    84       29           1
    84       34           4
    84       44           3
    84       69           3
    84       75           3
    84       78           1
    84       82           1
    84       85           1
    85       31           1
    85       37           4
    85       41           0
    85       43           0
    85       49           1
    85       54           2
    85       72           1
    85       75           2
    85       77           0
    85       80           1
    86        1           4
    86        6           1
    86       16           2
    86       33           3
    86       39           4
    86       45           4
    86       60           4
    86       87           1
    86       89           3
    86       99           1
    87       10           3
    87       34           3
    87       38           3
    87       39           0
    87       45           1
    87       49           2
    87       59           2
    87       70           3
    87       88           4
    87       98           4
    88        9           3
    88       16           1
    88       25           2
    88       48           2
    88       65           3
    88       70           0
    88       75           3
    88       82           1
    88       91           1
    88       98           2
    89        7           0
    89        9           3
    89       29           1
    89       36           3
    89       58           1
    89       65           4
    89       69           1
    89       76           2
    89       93           1
    89       96           0
    90        4           2
    90        5           3
    90       11           0
    90       26           3
    90       27           0
    90       33           0
    90       66           1
    90       73           4
    90       77           4
    90       85           3
    91        8           1
    91       14           3
    91       22           1
    91       27           4
    91       32           3
    91       43           0
    91       48           0
    91       87           1
    91       92           0
    91       98           4
    92       23           3
    92       25           4
    92       29           1
    92       42           1
    92       44           0
    92       52           1
    92       56           2
    92       64           0
    92       71           0
    92       96           3
    93        4           0
    93       14           0
    93       23           0
    93       38           2
    93       40           2
    93       41           4
    93       68           1
    93       89           2
    93       97           2
    93       98           3
    94        3           0
    94       15           3
    94       21           0
    94       22           1
    94       27           2
    94       70           2
    94       73           3
    94       82           3
    94       88           0
    94       91           3
    95       13           1
    95       16           1
    95       17           0
    95       21           0
    95       22           0
    95       49           3
    95       62           2
    95       79           0
    95       85           3
    95       99           1
    96        7           0
    96       19           3
    96       21           0
    96       29           4
    96       31           4
    96       32           4
    96       36           2
    96       38           3
    96       65           4
    96       75           2
    97       11           1
    97       17           1
    97       39           4
    97       42           4
    97       56           2
    97       58           1
    97       66           4
    97       67           1
    97       81           1
    97       85           2
    98        1           2
    98        3           1
    98        4           4
    98       15           2
    98       29           3
    98       33           4
    98       43           4
    98       47           1
    98       60           2
    98       93           2
    99        4           0
    99        7           4
    99       26           3
    99       41           3
    99       47           3
    99       59           2
    99       62           2
    99       71           0
    99       78           2
    99       92           0
   100       15           3
   100       21           2
   100       33           0
   100       55           0
   100       59           0
   100       76           3
   100       85           4
   100       95           0
   100       98           2
   100      100           0
